c SAT Generator for power-law distributed variable frequencies
c -g u -v 20 -c 91 -k 3 -p 2.750000 -b 3.200000 -f /home/schmidt/Devel/ni-kop-sat/data/ensemble/ruf20-91/ruf20-91-872 -u 1 -U 1 -s 3403254983
p cnf 20 91
7 17 20 0
1 -10 19 0
5 -12 -16 0
6 -11 -19 0
4 14 20 0
-4 12 -18 0
3 4 -5 0
-15 -17 19 0
-11 -13 16 0
3 -16 -20 0
2 -9 -20 0
-2 6 -14 0
6 -16 -18 0
8 18 -19 0
7 12 16 0
4 -12 14 0
5 15 17 0
-4 -11 -14 0
5 8 17 0
6 12 13 0
5 9 12 0
-9 12 16 0
-1 -9 10 0
10 14 -20 0
-12 13 -16 0
10 -14 18 0
-5 -6 -16 0
2 3 18 0
2 7 12 0
14 -15 -20 0
2 -3 -8 0
8 11 -16 0
-9 -12 -14 0
4 -8 12 0
4 5 7 0
-6 -15 18 0
-3 -7 -9 0
5 13 -17 0
10 17 -20 0
-12 13 16 0
2 3 12 0
-7 8 -16 0
-8 -12 17 0
5 -8 -11 0
-6 -9 -16 0
4 5 8 0
1 -9 -19 0
1 6 -13 0
-8 -11 14 0
-3 8 9 0
-5 19 -20 0
3 -11 -12 0
3 -5 -19 0
1 -11 17 0
1 -6 15 0
3 -4 -5 0
-4 13 18 0
10 -12 20 0
-3 -9 17 0
-6 8 -17 0
-6 -15 -18 0
-3 15 -19 0
8 -14 -20 0
-8 10 14 0
7 -9 -12 0
-1 -8 -9 0
-5 7 8 0
-6 9 16 0
5 -19 -20 0
-7 8 -13 0
-2 4 19 0
-13 17 19 0
-2 -3 9 0
4 -6 12 0
-7 -14 19 0
6 -16 -19 0
-3 -6 -11 0
-6 10 18 0
3 -4 9 0
-12 -13 -20 0
-5 -7 -18 0
-4 -9 10 0
-5 -14 -15 0
5 -15 16 0
7 -10 18 0
-11 13 18 0
-4 13 14 0
7 -11 16 0
-3 8 16 0
3 -6 16 0
12 17 20 0
